circuit_heights=[3, 4, 5, 6, 7, 8, 9, 10, 11, 13, 14, 17, 18, 19, 25, 5, 7, 13, 3];
circuit_widths=[3, 3, 3, 3, 3, 3, 3, 3, 3, 3, 3, 3, 3, 3, 3, 4, 4, 4, 6];
max_height=197;
min_height=25;
n_circuits=19;
plate_width=25;
